submitit INFO (2023-04-29 16:25:41,898) - Starting with JobEnvironment(job_id=27469, hostname=cpunode3, local_rank=2(5), node=0(1), global_rank=2(5))
submitit INFO (2023-04-29 16:25:41,898) - Loading pickle: /h/30/pashootan/Matrix-Mult-CP/src/../logs/2x2x2_4_Apr29_16:25:39/27469_submitted.pkl
 ! --------------------------------------------------- CP Optimizer 22.1.1.0 --
 ! Satisfiability problem - 48 variables, 64 constraints
 ! TimeLimit            = 172800
 ! Workers              = 8
 ! LogPeriod            = 10000000
 ! RandomSeed           = 8783
 ! Initial process time : 0.00s (0.00s extraction + 0.00s propagation)
 !  . Log search space  : 76.1 (before), 76.1 (after)
 !  . Memory usage      : 397.6 kB (before), 397.6 kB (after)
 ! Using parallel search with 8 workers.
 ! ----------------------------------------------------------------------------
 !               Branches  Non-fixed    W       Branch decision
 ! ----------------------------------------------------------------------------
 ! Search completed, model has no solution.
 ! ----------------------------------------------------------------------------
 ! Number of branches     : 37200139
 ! Number of fails        : 18394072
 ! Total memory usage     : 31.3 MB (31.3 MB CP Optimizer + 0.0 MB Concert)
 ! Time spent in solve    : 43.22s (43.22s engine + 0.00s extraction)
 ! Search speed (br. / s) : 860915.0
 ! ----------------------------------------------------------------------------
Infeasible
Saving stats to: /h/30/pashootan/Matrix-Mult-CP/logs/2x2x2_4_Apr29_16:25:39/27469_2_stats.csv
submitit INFO (2023-04-29 16:26:25,662) - Job completed successfully
